Solving original (integer) problem with strategy gdp.hull_exact...
--- Job model.gms Start 02/14/26 17:31:42 52.2.0 d8e408be LEX-LEG x86 64bit/Linux
--- Applying:
    /package/gams/52.2/gmsprmun.txt
--- GAMS Parameters defined
    Input /local/scratch/a/sgusev/repos/k_means/data/gams_gurobi_gdp.hull_exact/no_mode/2026-02-14_17-31-42/original/model.gms
    Output /local/scratch/a/sgusev/repos/k_means/data/gams_gurobi_gdp.hull_exact/no_mode/2026-02-14_17-31-42/original/output.lst
    ScrDir /local/scratch/a/sgusev/repos/k_means/data/gams_gurobi_gdp.hull_exact/no_mode/2026-02-14_17-31-42/original/225a/
    SysDir /package/gams/52.2/
    CurDir /local/scratch/a/sgusev/repos/k_means/data/gams_gurobi_gdp.hull_exact/no_mode/2026-02-14_17-31-42/original/
    LogOption 3
    AppendLog 1
Licensee: David Bernal / SECQUOIA Research Group         G251008+0003Ac-GEN
          Purdue University, Davidson School of Chemical EngineeringDCE4838
          225a/gamslice.dat
          5a82958a-fbca-4a23
          node:66820903 mem:995 cores:48 ipport:52725 v:2                  
          Evaluation license: Not for commercial or production use
          The time-limited license stops working on : Jun 30, 2027
System information: 48 physical cores and 995 Gb physical memory detected
GAMS 52.2.0   Copyright (C) 1987-2025 GAMS Development. All rights reserved
--- Starting compilation
--- model.gms(2280) 2 Mb
--- $echo File /local/scratch/a/sgusev/repos/k_means/data/gams_gurobi_gdp.hull_exact/no_mode/2026-02-14_17-31-42/original/gurobi.opt
--- model.gms(3385) 2 Mb
--- Starting execution: elapsed 0:00:00.014
--- model.gms(2289) 3 Mb
--- Generating MINLP model GAMS_MODEL
--- model.gms(2293) 5 Mb
---   687 rows  352 columns  1,681 non-zeroes
---   1,155 nl-code  220 nl-non-zeroes
---   55 discrete-columns
--- Range statistics (absolute non-zero finite values)
--- RHS       [min, max] : [ 1.000E+00, 1.000E+00] - Zero values observed as well
--- Bound     [min, max] : [ 1.000E+00, 4.400E+01] - Zero values observed as well
--- Matrix    [min, max] : [ 1.000E+00, 4.400E+01] - Zero values observed as well
--- model.gms(2293) 3 Mb
--- Executing GUROBI (Solvelink=5): elapsed 0:00:00.018
Reading parameter(s) from "/local/scratch/a/sgusev/repos/k_means/data/gams_gurobi_gdp.hull_exact/no_mode/2026-02-14_17-31-42/original/gurobi.opt"
>>  NonConvex 2
>>  Threads 1
>>  MIPGap 1e-06
>>  MIPGapAbs 1e-10
>>  FeasibilityTol 1e-06
>>  OptimalityTol 1e-06
>>  IntFeasTol 1e-05
Finished reading from "/local/scratch/a/sgusev/repos/k_means/data/gams_gurobi_gdp.hull_exact/no_mode/2026-02-14_17-31-42/original/gurobi.opt"

... GRB_LICENSE_FILE = /local/scratch/a/sgusev/gurobi.lic

    Gurobi           52.2.0 d8e408be Dec 8, 2025           LEG x86 64bit/Linux    

... GAMS/Gurobi Link license.
... GMO Q Extraction (ThreePass): 0.00s

    Gurobi Optimizer version 13.0.0 build v13.0.0rc1 (linux64 - "Oracle Linux Server 9.7")
    
    CPU model: AMD EPYC 7643 48-Core Processor, instruction set [SSE2|AVX|AVX2]
    Thread count: 48 physical cores, 96 logical processors, using up to 1 threads
    
    Non-default parameters:
    TimeLimit  300
    MIPGap  1e-06
    LogToConsole  0
    NonConvex  2
    Threads  1
    
    Optimize a model with 631 rows, 351 columns and 1449 nonzeros (Min)
    Model fingerprint: 0x09f337bf
    Model has 11 linear objective coefficients
    Model has 55 quadratic constraints
    Variable types: 296 continuous, 55 integer (0 binary)
    Coefficient statistics:
      Matrix range     [1e+00, 4e+01]
      QMatrix range    [2e-02, 2e+00]
      Objective range  [1e+00, 1e+00]
      Bounds range     [1e+00, 4e+01]
      RHS range        [1e+00, 1e+00]
    Presolve removed 110 rows and 121 columns
    Presolve time: 0.00s
    Presolved: 866 rows, 505 columns, 2278 nonzeros
    Presolved model has 110 quadratic constraint(s)
    Variable types: 450 continuous, 55 integer (55 binary)
    
    Root relaxation: objective 0.000000e+00, 173 iterations, 0.00 seconds (0.00 work units)
    
        Nodes    |    Current Node    |     Objective Bounds      |     Work
     Expl Unexpl |  Obj  Depth IntInf | Incumbent    BestBd   Gap | It/Node Time
    
    H    0     0                       2.0977343    0.00000   100%     -    0s
    *    0     0               0       2.0977343    0.00000   100%     -    0s
         0     0    0.00000    0   10    2.09773    0.00000   100%     -    0s
         0     0    0.00000    0   14    2.09773    0.00000   100%     -    0s
         0     0    0.00000    0   18    2.09773    0.00000   100%     -    0s
         0     0    0.00000    0   17    2.09773    0.00000   100%     -    0s
         0     0    0.00000    0   17    2.09773    0.00000   100%     -    0s
         0     0    0.00000    0    6    2.09773    0.00000   100%     -    0s
    H    0     0                       1.1227109    0.00000   100%     -    0s
         0     0    0.00000    0   18    1.12271    0.00000   100%     -    0s
         0     0    0.00000    0   13    1.12271    0.00000   100%     -    0s
         0     0    0.00000    0   13    1.12271    0.00000   100%     -    0s
         0     0    0.00000    0    4    1.12271    0.00000   100%     -    0s
         0     0    0.00000    0    4    1.12271    0.00000   100%     -    0s
         0     0    0.00000    0    9    1.12271    0.00000   100%     -    0s
         0     0    0.00000    0    9    1.12271    0.00000   100%     -    0s
         0     0    0.00000    0   14    1.12271    0.00000   100%     -    0s
         0     0    0.00000    0   14    1.12271    0.00000   100%     -    0s
         0     0    0.00000    0   12    1.12271    0.00000   100%     -    0s
         0     0    0.00000    0   13    1.12271    0.00000   100%     -    0s
         0     0    0.00000    0   13    1.12271    0.00000   100%     -    0s
         0     0    0.00000    0    4    1.12271    0.00000   100%     -    0s
         0     0    0.00000    0   17    1.12271    0.00000   100%     -    0s
         0     0    0.00000    0   17    1.12271    0.00000   100%     -    0s
         0     0    0.00000    0   16    1.12271    0.00000   100%     -    0s
         0     0    0.00000    0   19    1.12271    0.00000   100%     -    0s
         0     0    0.00000    0   19    1.12271    0.00000   100%     -    0s
         0     0    0.00000    0    8    1.12271    0.00000   100%     -    0s
         0     0    0.00000    0   12    1.12271    0.00000   100%     -    0s
         0     0    0.00000    0   12    1.12271    0.00000   100%     -    0s
         0     0    0.00000    0   14    1.12271    0.00000   100%     -    0s
         0     0    0.00000    0   12    1.12271    0.00000   100%     -    0s
         0     0    0.00000    0   14    1.12271    0.00000   100%     -    0s
         0     0    0.00000    0   12    1.12271    0.00000   100%     -    0s
         0     0    0.00000    0   12    1.12271    0.00000   100%     -    0s
         0     0    0.00000    0   10    1.12271    0.00000   100%     -    0s
         0     0    0.00000    0   14    1.12271    0.00000   100%     -    0s
         0     0    0.00000    0   14    1.12271    0.00000   100%     -    0s
         0     0    0.00000    0   12    1.12271    0.00000   100%     -    0s
         0     0    0.00000    0    4    1.12271    0.00000   100%     -    0s
         0     0    0.00000    0   10    1.12271    0.00000   100%     -    0s
         0     0    0.00000    0   10    1.12271    0.00000   100%     -    0s
         0     0    0.00000    0   12    1.12271    0.00000   100%     -    0s
         0     0    0.00000    0    6    1.12271    0.00000   100%     -    0s
         0     0    0.00000    0    8    1.12271    0.00000   100%     -    0s
         0     0    0.00000    0   10    1.12271    0.00000   100%     -    0s
         0     0    0.00000    0   10    1.12271    0.00000   100%     -    0s
         0     0    0.00000    0   12    1.12271    0.00000   100%     -    0s
         0     0    0.00000    0    8    1.12271    0.00000   100%     -    0s
         0     0    0.00000    0   12    1.12271    0.00000   100%     -    0s
         0     0    0.00000    0   12    1.12271    0.00000   100%     -    0s
         0     0    0.00000    0   12    1.12271    0.00000   100%     -    0s
         0     0    0.00000    0    6    1.12271    0.00000   100%     -    0s
         0     0    0.00000    0    8    1.12271    0.00000   100%     -    0s
         0     0    0.00000    0   10    1.12271    0.00000   100%     -    0s
         0     0    0.00000    0   10    1.12271    0.00000   100%     -    0s
         0     0    0.00000    0   12    1.12271    0.00000   100%     -    0s
         0     0    0.00000    0   12    1.12271    0.00000   100%     -    0s
         0     0    0.00000    0   10    1.12271    0.00000   100%     -    0s
         0     0    0.00000    0   10    1.12271    0.00000   100%     -    0s
         0     0    0.00000    0   12    1.12271    0.00000   100%     -    0s
         0     0    0.00000    0   12    1.12271    0.00000   100%     -    0s
         0     0    0.00000    0   12    1.12271    0.00000   100%     -    0s
         0     0    0.00000    0    8    1.12271    0.00000   100%     -    0s
         0     0    0.00000    0   16    1.12271    0.00000   100%     -    0s
         0     0    0.00000    0   11    1.12271    0.00000   100%     -    0s
         0     0    0.00000    0   10    1.12271    0.00000   100%     -    0s
         0     0    0.00000    0   10    1.12271    0.00000   100%     -    0s
         0     0    0.00000    0    8    1.12271    0.00000   100%     -    0s
         0     0    0.00000    0   10    1.12271    0.00000   100%     -    0s
         0     0    0.00000    0   10    1.12271    0.00000   100%     -    0s
         0     0    0.00000    0    6    1.12271    0.00000   100%     -    0s
         0     0    0.00000    0   12    1.12271    0.00000   100%     -    0s
         0     0    0.00000    0   12    1.12271    0.00000   100%     -    0s
         0     0    0.00000    0   12    1.12271    0.00000   100%     -    0s
         0     0    0.00000    0   10    1.12271    0.00000   100%     -    0s
         0     0    0.00000    0   10    1.12271    0.00000   100%     -    0s
         0     0    0.00000    0   10    1.12271    0.00000   100%     -    0s
         0     0    0.00000    0   10    1.12271    0.00000   100%     -    0s
         0     0    0.00000    0   10    1.12271    0.00000   100%     -    0s
         0     0    0.00000    0   10    1.12271    0.00000   100%     -    0s
         0     0    0.00000    0   10    1.12271    0.00000   100%     -    0s
         0     0    0.00000    0   12    1.12271    0.00000   100%     -    0s
         0     0    0.00000    0   12    1.12271    0.00000   100%     -    0s
         0     0    0.00000    0   14    1.12271    0.00000   100%     -    0s
         0     0    0.00000    0   14    1.12271    0.00000   100%     -    0s
         0     0    0.00000    0   12    1.12271    0.00000   100%     -    0s
         0     0    0.00000    0    8    1.12271    0.00000   100%     -    0s
         0     0    0.00000    0   12    1.12271    0.00000   100%     -    0s
         0     0    0.00000    0   12    1.12271    0.00000   100%     -    0s
         0     0    0.00000    0   14    1.12271    0.00000   100%     -    0s
         0     0    0.00000    0   10    1.12271    0.00000   100%     -    0s
         0     0    0.00000    0    9    1.12271    0.00000   100%     -    0s
         0     0    0.00000    0   12    1.12271    0.00000   100%     -    0s
         0     0    0.00000    0    8    1.12271    0.00000   100%     -    0s
         0     0    0.00000    0   10    1.12271    0.00000   100%     -    0s
         0     0    0.00000    0    8    1.12271    0.00000   100%     -    0s
         0     0    0.00000    0   10    1.12271    0.00000   100%     -    0s
         0     0    0.00000    0   10    1.12271    0.00000   100%     -    0s
         0     0    0.00000    0   10    1.12271    0.00000   100%     -    0s
         0     0    0.00000    0    4    1.12271    0.00000   100%     -    0s
         0     0    0.00000    0    8    1.12271    0.00000   100%     -    0s
         0     0    0.00000    0   10    1.12271    0.00000   100%     -    0s
         0     0    0.00000    0   10    1.12271    0.00000   100%     -    0s
         0     0    0.00000    0    8    1.12271    0.00000   100%     -    0s
         0     0    0.00000    0   12    1.12271    0.00000   100%     -    0s
         0     0    0.00000    0   12    1.12271    0.00000   100%     -    0s
         0     0    0.00000    0    8    1.12271    0.00000   100%     -    0s
         0     0    0.00000    0   10    1.12271    0.00000   100%     -    0s
         0     0    0.00000    0    2    1.12271    0.00000   100%     -    0s
         0     0    0.00000    0    8    1.12271    0.00000   100%     -    0s
         0     0    0.00000    0    4    1.12271    0.00000   100%     -    0s
         0     0    0.00000    0    8    1.12271    0.00000   100%     -    0s
         0     0    0.00000    0   12    1.12271    0.00000   100%     -    0s
         0     0    0.00000    0   12    1.12271    0.00000   100%     -    0s
         0     0    0.00000    0   12    1.12271    0.00000   100%     -    0s
         0     0    0.00000    0   12    1.12271    0.00000   100%     -    0s
         0     0    0.00000    0   12    1.12271    0.00000   100%     -    0s
         0     0    0.00000    0   12    1.12271    0.00000   100%     -    0s
         0     0    0.00000    0    8    1.12271    0.00000   100%     -    0s
         0     0    0.00000    0   10    1.12271    0.00000   100%     -    0s
         0     0    0.00000    0   10    1.12271    0.00000   100%     -    0s
         0     0    0.00000    0   12    1.12271    0.00000   100%     -    0s
         0     0    0.00000    0   10    1.12271    0.00000   100%     -    0s
         0     0    0.00000    0   10    1.12271    0.00000   100%     -    0s
         0     0    0.00000    0   10    1.12271    0.00000   100%     -    0s
         0     0    0.00000    0   12    1.12271    0.00000   100%     -    0s
         0     0    0.00000    0   12    1.12271    0.00000   100%     -    0s
         0     0    0.00000    0   14    1.12271    0.00000   100%     -    0s
         0     0    0.00000    0    6    1.12271    0.00000   100%     -    0s
         0     0    0.00000    0   12    1.12271    0.00000   100%     -    0s
         0     0    0.00000    0   12    1.12271    0.00000   100%     -    0s
         0     0    0.00000    0   12    1.12271    0.00000   100%     -    0s
         0     0    0.00000    0   10    1.12271    0.00000   100%     -    0s
         0     0    0.00000    0   10    1.12271    0.00000   100%     -    0s
         0     0    0.00000    0   10    1.12271    0.00000   100%     -    0s
         0     0    0.00000    0   12    1.12271    0.00000   100%     -    0s
         0     0    0.00000    0    6    1.12271    0.00000   100%     -    0s
         0     0    0.00000    0   12    1.12271    0.00000   100%     -    0s
         0     0    0.00000    0   12    1.12271    0.00000   100%     -    0s
         0     0    0.00000    0   12    1.12271    0.00000   100%     -    0s
         0     0    0.00000    0    8    1.12271    0.00000   100%     -    0s
         0     0    0.00000    0   10    1.12271    0.00000   100%     -    0s
         0     0    0.00000    0   10    1.12271    0.00000   100%     -    0s
         0     0    0.00000    0   14    1.12271    0.00000   100%     -    0s
         0     0    0.00000    0    8    1.12271    0.00000   100%     -    0s
         0     0    0.00000    0    8    1.12271    0.00000   100%     -    0s
         0     0    0.00000    0   10    1.12271    0.00000   100%     -    0s
         0     0    0.00000    0   10    1.12271    0.00000   100%     -    0s
         0     0    0.00000    0   10    1.12271    0.00000   100%     -    0s
         0     0    0.00000    0   10    1.12271    0.00000   100%     -    0s
         0     0    0.00000    0   10    1.12271    0.00000   100%     -    0s
         0     0    0.00000    0   10    1.12271    0.00000   100%     -    0s
         0     0    0.00000    0   10    1.12271    0.00000   100%     -    0s
         0     0    0.00000    0   10    1.12271    0.00000   100%     -    0s
         0     0    0.00000    0   14    1.12271    0.00000   100%     -    0s
         0     0    0.00000    0    8    1.12271    0.00000   100%     -    0s
         0     0    0.00000    0   12    1.12271    0.00000   100%     -    0s
         0     0    0.00000    0   10    1.12271    0.00000   100%     -    0s
         0     0    0.00000    0   14    1.12271    0.00000   100%     -    0s
         0     0    0.00000    0   12    1.12271    0.00000   100%     -    0s
         0     0    0.00000    0    8    1.12271    0.00000   100%     -    0s
         0     0    0.00000    0   12    1.12271    0.00000   100%     -    0s
         0     0    0.00000    0   12    1.12271    0.00000   100%     -    0s
         0     0    0.00000    0   12    1.12271    0.00000   100%     -    0s
         0     0    0.00000    0   10    1.12271    0.00000   100%     -    0s
         0     0    0.00000    0   16    1.12271    0.00000   100%     -    0s
         0     0    0.00000    0   13    1.12271    0.00000   100%     -    0s
         0     0    0.00000    0   12    1.12271    0.00000   100%     -    0s
         0     0    0.00000    0   10    1.12271    0.00000   100%     -    0s
         0     0    0.00000    0   14    1.12271    0.00000   100%     -    0s
         0     0    0.00000    0   12    1.12271    0.00000   100%     -    0s
         0     0    0.00000    0   16    1.12271    0.00000   100%     -    0s
         0     0    0.00000    0   12    1.12271    0.00000   100%     -    0s
         0     0    0.00000    0   10    1.12271    0.00000   100%     -    0s
         0     0    0.00000    0    8    1.12271    0.00000   100%     -    0s
         0     0    0.00000    0   14    1.12271    0.00000   100%     -    0s
         0     0    0.00000    0   14    1.12271    0.00000   100%     -    0s
         0     0    0.00000    0   20    1.12271    0.00000   100%     -    0s
         0     0    0.00000    0   12    1.12271    0.00000   100%     -    0s
         0     0    0.00000    0   15    1.12271    0.00000   100%     -    0s
         0     0    0.00000    0    6    1.12271    0.00000   100%     -    0s
         0     0    0.00000    0    4    1.12271    0.00000   100%     -    0s
         0     0    0.00000    0   10    1.12271    0.00000   100%     -    0s
         0     0    0.00000    0   10    1.12271    0.00000   100%     -    0s
         0     0    0.00000    0   14    1.12271    0.00000   100%     -    0s
         0     0    0.00000    0   14    1.12271    0.00000   100%     -    0s
         0     0    0.00000    0   12    1.12271    0.00000   100%     -    0s
         0     0    0.00000    0   12    1.12271    0.00000   100%     -    0s
         0     0    0.00000    0    8    1.12271    0.00000   100%     -    0s
         0     0    0.00000    0   12    1.12271    0.00000   100%     -    0s
         0     0    0.00000    0   12    1.12271    0.00000   100%     -    0s
         0     0    0.00000    0   14    1.12271    0.00000   100%     -    0s
         0     0    0.00000    0   14    1.12271    0.00000   100%     -    0s
         0     0    0.00000    0   18    1.12271    0.00000   100%     -    0s
         0     0    0.00000    0   10    1.12271    0.00000   100%     -    0s
    H    0     0                       0.7899224    0.00000   100%     -    0s
    H    0     0                       0.7899224    0.00000   100%     -    0s
         0     2    0.00000    0   10    0.78992    0.00000   100%     -    0s
    H    3     3                       0.6119796    0.00000   100%  10.3    0s
    H   14     8                       0.6119793    0.00000   100%  42.3    0s
    H   25    15                       0.6119792    0.00000   100%  46.4    0s
    H  385   208                       0.6119785    0.00000   100%  50.9    1s
    H  385   198                       0.6119785    0.00000   100%  50.9    1s
    H  436   194                       0.6119785    0.00000   100%  57.3    2s
    H  436   184                       0.6119785    0.00000   100%  57.3    2s
    H 1225   358                       0.5344058    0.00000   100%  64.3    4s
    H 1230   349                       0.5173238    0.00000   100%  64.1    4s
    H 1252   286                       0.4192620    0.00000   100%  63.9    4s
    H 1257   287                       0.4192618    0.00000   100%  64.7    4s
    H 1291   284                       0.4192615    0.00000   100%  65.6    4s
    H 1347   306                       0.4192615    0.00008   100%  67.1    4s
    H 1347   306                       0.4192615    0.00008   100%  67.1    4s
      1730   364    0.06072   23   20    0.41926    0.01901  95.5%  69.2    5s
    
    Cutting planes:
      Implied bound: 1
      Flow cover: 1
      Inf proof: 1
    
    Explored 3463 nodes (228903 simplex iterations) in 7.03 seconds (6.46 work units)
    Thread count was 1 (of 96 available processors)
    
    Solution count 7: 0.419261 0.517324 0.534406 ... 2.09773
    
    Optimal solution found (tolerance 1.00e-06)
    Best objective 4.192614686496e-01, best bound 4.192614686496e-01, gap 0.0000%
    
    User-callback calls 3583, time in user-callback 0.00 sec

... Solving fixed model...

    Gurobi Optimizer version 13.0.0 build v13.0.0rc1 (linux64 - "Oracle Linux Server 9.7")
    
    CPU model: AMD EPYC 7643 48-Core Processor, instruction set [SSE2|AVX|AVX2]
    Thread count: 48 physical cores, 96 logical processors, using up to 1 threads
    
    Non-default parameters:
    TimeLimit  300
    MIPGap  1e-06
    LogToConsole  0
    NonConvex  2
    Threads  1
    
    Optimize a model with 631 rows, 351 columns and 1449 nonzeros (Min)
    Model fingerprint: 0x8aa50372
    Model has 11 linear objective coefficients
    Model has 55 quadratic constraints
    Coefficient statistics:
      Matrix range     [1e+00, 4e+01]
      QMatrix range    [2e-02, 2e+00]
      Objective range  [1e+00, 1e+00]
      Bounds range     [1e+00, 4e+01]
      RHS range        [1e+00, 1e+00]
    Presolve removed 627 rows and 332 columns
    Presolve time: 0.00s
    Presolved: 41 rows, 53 columns, 99 nonzeros
    Presolved model has 11 second-order cone constraints
    Ordering time: 0.00s
    
    Barrier statistics:
     AA' NZ     : 1.940e+02
     Factor NZ  : 3.580e+02
     Factor Ops : 4.096e+03 (less than 1 second per iteration)
     Threads    : 1
    
                      Objective                Residual
    Iter       Primal          Dual         Primal    Dual     Compl     Time
       0   2.59238933e+02 -1.35295123e+02  8.69e+00 2.31e+00  6.81e+00     0s
       1   2.30824309e+01 -1.79790942e+01  9.56e-06 2.55e-06  5.26e-01     0s
       2   7.45854785e-01 -2.78570863e+00  1.23e-07 3.63e-07  4.53e-02     0s
       3   5.16770696e-01 -1.70742419e-01  1.05e-08 6.08e-08  8.81e-03     0s
       4   4.37619231e-01  3.90101378e-01  3.32e-14 1.94e-09  6.09e-04     0s
       5   4.20259725e-01  4.18366833e-01  1.37e-13 8.38e-12  2.43e-05     0s
       6   4.19509788e-01  4.19095388e-01  1.82e-11 2.06e-13  5.31e-06     0s
       7   4.19272136e-01  4.19244922e-01  1.30e-10 1.46e-13  3.49e-07     0s
       8   4.19262360e-01  4.19260146e-01  3.00e-10 9.83e-13  2.84e-08     0s
       9   4.19261613e-01  4.19261115e-01  4.91e-09 7.81e-11  6.38e-09     0s
    
    Barrier solved model in 9 iterations and 0.00 seconds (0.00 work units)
    Optimal objective 4.19261613e-01
    
    
    User-callback calls 0, time in user-callback 0.00 sec
    Warning: to get QCP duals, please set parameter QCPDual to 1

--- Reading solution for model GAMS_MODEL
***
*** Solver did not provide marginals for model GAMS_MODEL
***
--- Executing after solve: elapsed 0:00:07.082
--- model.gms(2296) 3 Mb
--- model.gms(3385) 5 Mb
--- Putfile results /local/scratch/a/sgusev/repos/k_means/data/gams_gurobi_gdp.hull_exact/no_mode/2026-02-14_17-31-42/original/results.dat
--- Putfile statresults /local/scratch/a/sgusev/repos/k_means/data/gams_gurobi_gdp.hull_exact/no_mode/2026-02-14_17-31-42/original/resultsstat.dat
*** Status: Normal completion
--- Job model.gms Stop 02/14/26 17:31:50 elapsed 0:00:07.084
Original problem solved. Time taken: 7.632389307022095 seconds
Original objective value: 0.419261612899082
